data;
param: T: d, q, c, m, b:=
		1	200 120 50 5 4
		2	180	130 60 4 3
		3	300 135 55 6 3
		4	230 140 60 5 2
		5	300 180 40 4 2
		6	800 200 50 3 3
		7   1100 210 60 5 2
		8   900	 230 65 4 3
		9 	400	 230 60 5 2
		10  300	 240 70 3 3;
		
param LB:=180;
param UB:=250;

param p:=0.15;